p cnf 437 488
c ind 195 196 197 198 199 200 0
c ind 201 202 203 204 205 206 207 208 209 210 0
c ind 211 212 213 214 215 216 217 218 219 220 0
c ind 221 222 223 224 225 226 227 228 229 230 0
c ind 231 232 233 234 235 236 237 238 239 240 0
c ind 241 242 243 244 245 246 247 248 249 250 0
c ind 251 252 253 254 255 256 257 258 259 260 0
c ind 261 262 263 264 265 266 267 268 269 270 0
c ind 271 272 273 274 275 276 277 278 279 280 0
c ind 281 282 283 284 285 286 287 288 289 290 0
c ind 291 292 293 294 295 296 297 298 299 300 0
c ind 301 302 303 304 305 306 307 308 309 310 0
c ind 311 312 313 314 315 316 317 318 319 320 0
c ind 321 322 323 324 325 326 327 328 329 330 0
c ind 331 332 333 334 335 336 337 338 339 340 0
c ind 341 342 343 344 345 346 347 348 349 350 0
c ind 351 352 353 354 355 356 357 358 359 360 0
c ind 361 362 363 364 365 366 367 368 369 370 0
c ind 371 372 373 374 375 376 377 378 379 380 0
c ind 381 382 383 384 385 386 387 388 389 390 0
c ind 391 392 393 394 395 396 397 398 399 400 0
c ind 401 402 403 404 405 406 407 408 409 410 0
c ind 411 412 413 414 415 416 417 418 419 420 0
c ind 421 422 423 424 425 426 427 428 429 430 0
c ind 431 432 433 434 435 436 437 0
46 0
-44 0
-1 -195 2 0
1 -195 -2 0
-1 -196 26 0
1 -196 -26 0
-2 -197 3 0
2 -197 -3 0
-3 -198 12 0
3 -198 -12 0
-3 -199 39 0
3 -199 -39 0
-3 -200 61 0
3 -200 -61 0
-4 -201 39 0
4 -201 -39 0
-4 -202 72 0
4 -202 -72 0
-5 -203 72 0
5 -203 -72 0
-6 -204 40 0
6 -204 -40 0
-6 -205 42 0
6 -205 -42 0
-6 -206 72 0
6 -206 -72 0
-6 -207 89 0
6 -207 -89 0
-7 -208 8 0
7 -208 -8 0
-7 -209 9 0
7 -209 -9 0
-7 -210 42 0
7 -210 -42 0
-8 -211 91 0
8 -211 -91 0
-9 -212 66 0
9 -212 -66 0
-10 -213 66 0
10 -213 -66 0
-11 -214 19 0
11 -214 -19 0
-11 -215 43 0
11 -215 -43 0
-12 -216 14 0
12 -216 -14 0
-13 -217 86 0
13 -217 -86 0
-14 -218 86 0
14 -218 -86 0
-15 -219 70 0
15 -219 -70 0
-15 -220 101 0
15 -220 -101 0
-16 -221 65 0
16 -221 -65 0
-16 -222 71 0
16 -222 -71 0
-17 -223 71 0
17 -223 -71 0
-17 -224 86 0
17 -224 -86 0
-18 -225 47 0
18 -225 -47 0
-18 -226 88 0
18 -226 -88 0
-19 -227 90 0
19 -227 -90 0
-20 -228 21 0
20 -228 -21 0
-20 -229 22 0
20 -229 -22 0
-20 -230 31 0
20 -230 -31 0
-20 -231 73 0
20 -231 -73 0
-21 -232 90 0
21 -232 -90 0
-22 -233 74 0
22 -233 -74 0
-22 -234 90 0
22 -234 -90 0
-23 -235 61 0
23 -235 -61 0
-24 -236 25 0
24 -236 -25 0
-25 -237 26 0
25 -237 -26 0
-25 -238 43 0
25 -238 -43 0
-25 -239 61 0
25 -239 -61 0
-25 -240 62 0
25 -240 -62 0
-26 -241 51 0
26 -241 -51 0
-27 -242 75 0
27 -242 -75 0
-27 -243 118 0
27 -243 -118 0
-27 -244 159 0
27 -244 -159 0
-27 -245 160 0
27 -245 -160 0
-27 -246 161 0
27 -246 -161 0
-28 -247 110 0
28 -247 -110 0
-28 -248 185 0
28 -248 -185 0
-28 -249 187 0
28 -249 -187 0
-29 -250 48 0
29 -250 -48 0
-29 -251 113 0
29 -251 -113 0
-29 -252 156 0
29 -252 -156 0
-29 -253 174 0
29 -253 -174 0
-30 -254 32 0
30 -254 -32 0
-30 -255 44 0
30 -255 -44 0
-30 -256 76 0
30 -256 -76 0
-30 -257 79 0
30 -257 -79 0
-30 -258 130 0
30 -258 -130 0
-32 -259 44 0
32 -259 -44 0
-33 -260 60 0
33 -260 -60 0
-33 -261 76 0
33 -261 -76 0
-33 -262 130 0
33 -262 -130 0
-33 -263 157 0
33 -263 -157 0
-33 -264 193 0
33 -264 -193 0
-34 -265 39 0
34 -265 -39 0
-34 -266 104 0
34 -266 -104 0
-35 -267 53 0
35 -267 -53 0
-35 -268 59 0
35 -268 -59 0
-36 -269 40 0
36 -269 -40 0
-36 -270 51 0
36 -270 -51 0
-36 -271 62 0
36 -271 -62 0
-37 -272 48 0
37 -272 -48 0
-38 -273 42 0
38 -273 -42 0
-38 -274 48 0
38 -274 -48 0
-39 -275 42 0
39 -275 -42 0
-39 -276 63 0
39 -276 -63 0
-39 -277 66 0
39 -277 -66 0
-39 -278 89 0
39 -278 -89 0
-40 -279 42 0
40 -279 -42 0
-40 -280 96 0
40 -280 -96 0
-41 -281 113 0
41 -281 -113 0
-42 -282 48 0
42 -282 -48 0
-42 -283 62 0
42 -283 -62 0
-42 -284 102 0
42 -284 -102 0
-43 -285 61 0
43 -285 -61 0
-44 -286 49 0
44 -286 -49 0
-44 -287 53 0
44 -287 -53 0
-44 -288 61 0
44 -288 -61 0
-44 -289 65 0
44 -289 -65 0
-44 -290 69 0
44 -290 -69 0
-44 -291 71 0
44 -291 -71 0
-45 -292 57 0
45 -292 -57 0
-46 -293 62 0
46 -293 -62 0
-46 -294 134 0
46 -294 -134 0
-46 -295 135 0
46 -295 -135 0
-46 -296 142 0
46 -296 -142 0
-46 -297 150 0
46 -297 -150 0
-46 -298 151 0
46 -298 -151 0
-46 -299 164 0
46 -299 -164 0
-46 -300 169 0
46 -300 -169 0
-46 -301 171 0
46 -301 -171 0
-46 -302 191 0
46 -302 -191 0
-46 -303 193 0
46 -303 -193 0
-47 -304 64 0
47 -304 -64 0
-48 -305 58 0
48 -305 -58 0
-48 -306 62 0
48 -306 -62 0
-49 -307 68 0
49 -307 -68 0
-50 -308 67 0
50 -308 -67 0
-52 -309 64 0
52 -309 -64 0
-52 -310 69 0
52 -310 -69 0
-52 -311 100 0
52 -311 -100 0
-53 -312 104 0
53 -312 -104 0
-54 -313 68 0
54 -313 -68 0
-55 -314 80 0
55 -314 -80 0
-56 -315 80 0
56 -315 -80 0
-56 -316 82 0
56 -316 -82 0
-56 -317 84 0
56 -317 -84 0
-57 -318 78 0
57 -318 -78 0
-58 -319 62 0
58 -319 -62 0
-59 -320 61 0
59 -320 -61 0
-60 -321 115 0
60 -321 -115 0
-61 -322 65 0
61 -322 -65 0
-61 -323 73 0
61 -323 -73 0
-61 -324 74 0
61 -324 -74 0
-62 -325 108 0
62 -325 -108 0
-62 -326 112 0
62 -326 -112 0
-62 -327 131 0
62 -327 -131 0
-62 -328 134 0
62 -328 -134 0
-62 -329 168 0
62 -329 -168 0
-63 -330 104 0
63 -330 -104 0
-64 -331 71 0
64 -331 -71 0
-67 -332 102 0
67 -332 -102 0
-67 -333 103 0
67 -333 -103 0
-68 -334 78 0
68 -334 -78 0
-69 -335 87 0
69 -335 -87 0
-70 -336 74 0
70 -336 -74 0
-70 -337 75 0
70 -337 -75 0
-73 -338 75 0
73 -338 -75 0
-75 -339 76 0
75 -339 -76 0
-75 -340 109 0
75 -340 -109 0
-75 -341 115 0
75 -341 -115 0
-75 -342 134 0
75 -342 -134 0
-75 -343 167 0
75 -343 -167 0
-75 -344 171 0
75 -344 -171 0
-75 -345 192 0
75 -345 -192 0
-75 -346 194 0
75 -346 -194 0
-76 -347 119 0
76 -347 -119 0
-76 -348 121 0
76 -348 -121 0
-76 -349 126 0
76 -349 -126 0
-77 -350 78 0
77 -350 -78 0
-77 -351 81 0
77 -351 -81 0
-78 -352 79 0
78 -352 -79 0
-78 -353 81 0
78 -353 -81 0
-78 -354 84 0
78 -354 -84 0
-80 -355 81 0
80 -355 -81 0
-82 -356 83 0
82 -356 -83 0
-84 -357 85 0
84 -357 -85 0
-87 -358 88 0
87 -358 -88 0
-92 -359 104 0
92 -359 -104 0
-93 -360 104 0
93 -360 -104 0
-94 -361 95 0
94 -361 -95 0
-94 -362 97 0
94 -362 -97 0
-95 -363 96 0
95 -363 -96 0
-97 -364 98 0
97 -364 -98 0
-98 -365 99 0
98 -365 -99 0
-105 -366 106 0
105 -366 -106 0
-105 -367 165 0
105 -367 -165 0
-105 -368 166 0
105 -368 -166 0
-106 -369 115 0
106 -369 -115 0
-107 -370 165 0
107 -370 -165 0
-108 -371 116 0
108 -371 -116 0
-108 -372 167 0
108 -372 -167 0
-109 -373 151 0
109 -373 -151 0
-109 -374 184 0
109 -374 -184 0
-110 -375 117 0
110 -375 -117 0
-110 -376 187 0
110 -376 -187 0
-110 -377 188 0
110 -377 -188 0
-111 -378 112 0
111 -378 -112 0
-113 -379 114 0
113 -379 -114 0
-119 -380 128 0
119 -380 -128 0
-120 -381 124 0
120 -381 -124 0
-121 -382 162 0
121 -382 -162 0
-122 -383 124 0
122 -383 -124 0
-122 -384 127 0
122 -384 -127 0
-122 -385 129 0
122 -385 -129 0
-122 -386 130 0
122 -386 -130 0
-122 -387 161 0
122 -387 -161 0
-123 -388 125 0
123 -388 -125 0
-123 -389 126 0
123 -389 -126 0
-123 -390 127 0
123 -390 -127 0
-129 -391 162 0
129 -391 -162 0
-131 -392 132 0
131 -392 -132 0
-133 -393 158 0
133 -393 -158 0
-133 -394 188 0
133 -394 -188 0
-134 -395 164 0
134 -395 -164 0
-134 -396 167 0
134 -396 -167 0
-135 -397 142 0
135 -397 -142 0
-135 -398 144 0
135 -398 -144 0
-136 -399 148 0
136 -399 -148 0
-137 -400 148 0
137 -400 -148 0
-138 -401 140 0
138 -401 -140 0
-138 -402 147 0
138 -402 -147 0
-139 -403 141 0
139 -403 -141 0
-139 -404 143 0
139 -404 -143 0
-140 -405 141 0
140 -405 -141 0
-142 -406 147 0
142 -406 -147 0
-145 -407 146 0
145 -407 -146 0
-146 -408 147 0
146 -408 -147 0
-146 -409 148 0
146 -409 -148 0
-149 -410 168 0
149 -410 -168 0
-150 -411 153 0
150 -411 -153 0
-151 -412 152 0
151 -412 -152 0
-152 -413 153 0
152 -413 -153 0
-152 -414 178 0
152 -414 -178 0
-154 -415 156 0
154 -415 -156 0
-155 -416 156 0
155 -416 -156 0
-155 -417 176 0
155 -417 -176 0
-159 -418 161 0
159 -418 -161 0
-160 -419 161 0
160 -419 -161 0
-162 -420 163 0
162 -420 -163 0
-165 -421 193 0
165 -421 -193 0
-166 -422 193 0
166 -422 -193 0
-170 -423 171 0
170 -423 -171 0
-172 -424 173 0
172 -424 -173 0
-173 -425 175 0
173 -425 -175 0
-174 -426 175 0
174 -426 -175 0
-176 -427 177 0
176 -427 -177 0
-176 -428 180 0
176 -428 -180 0
-177 -429 179 0
177 -429 -179 0
-177 -430 181 0
177 -430 -181 0
-179 -431 181 0
179 -431 -181 0
-181 -432 182 0
181 -432 -182 0
-182 -433 183 0
182 -433 -183 0
-182 -434 187 0
182 -434 -187 0
-185 -435 186 0
185 -435 -186 0
-188 -436 189 0
188 -436 -189 0
-190 -437 191 0
190 -437 -191 0
w 195 0.5
w 196 0.5
w 197 0.5
w 198 0.5
w 199 0.5
w 200 0.5
w 201 0.5
w 202 0.5
w 203 0.5
w 204 0.5
w 205 0.5
w 206 0.5
w 207 0.5
w 208 0.5
w 209 0.5
w 210 0.5
w 211 0.5
w 212 0.5
w 213 0.5
w 214 0.5
w 215 0.5
w 216 0.5
w 217 0.5
w 218 0.5
w 219 0.5
w 220 0.5
w 221 0.5
w 222 0.5
w 223 0.5
w 224 0.5
w 225 0.5
w 226 0.5
w 227 0.4375
w 228 0.5
w 229 0.5
w 230 0.5
w 231 0.5
w 232 0.5
w 233 0.5
w 234 0.5
w 235 0.5
w 236 0.5
w 237 0.5
w 238 0.5
w 239 0.5
w 240 0.5
w 241 0.5
w 242 0.5
w 243 0.5
w 244 0.5
w 245 0.5
w 246 0.5
w 247 0.5
w 248 0.5
w 249 0.5
w 250 0.5
w 251 0.5
w 252 0.5
w 253 0.5
w 254 0.5
w 255 0.5
w 256 0.5
w 257 0.5
w 258 0.5
w 259 0.5
w 260 0.5
w 261 0.5
w 262 0.5
w 263 0.5
w 264 0.5
w 265 0.5
w 266 0.5
w 267 0.4375
w 268 0.5
w 269 0.5
w 270 0.5
w 271 0.5
w 272 0.5
w 273 0.5
w 274 0.5
w 275 0.5
w 276 0.5
w 277 0.5
w 278 0.5
w 279 0.5
w 280 0.5
w 281 0.5
w 282 0.5
w 283 0.5
w 284 0.5
w 285 0.5
w 286 0.5
w 287 0.5
w 288 0.5
w 289 0.5
w 290 0.5
w 291 0.5
w 292 0.5
w 293 0.5
w 294 0.5
w 295 0.5
w 296 0.4375
w 297 0.5
w 298 0.5
w 299 0.5
w 300 0.5
w 301 0.5
w 302 0.5
w 303 0.5
w 304 0.5
w 305 0.5
w 306 0.5
w 307 0.5
w 308 0.5
w 309 0.5
w 310 0.5
w 311 0.5
w 312 0.5
w 313 0.5
w 314 0.5
w 315 0.5
w 316 0.5
w 317 0.5
w 318 0.5
w 319 0.5
w 320 0.5
w 321 0.5
w 322 0.5
w 323 0.5
w 324 0.5
w 325 0.5
w 326 0.5
w 327 0.5
w 328 0.5
w 329 0.5
w 330 0.5625
w 331 0.5
w 332 0.5
w 333 0.5
w 334 0.5
w 335 0.5
w 336 0.5
w 337 0.5
w 338 0.5
w 339 0.5
w 340 0.5
w 341 0.5
w 342 0.5
w 343 0.5
w 344 0.5
w 345 0.5
w 346 0.5
w 347 0.5
w 348 0.5
w 349 0.5
w 350 0.5
w 351 0.5625
w 352 0.5
w 353 0.5
w 354 0.5
w 355 0.4375
w 356 0.5
w 357 0.5
w 358 0.5
w 359 0.5
w 360 0.5
w 361 0.5
w 362 0.5
w 363 0.5
w 364 0.5
w 365 0.5
w 366 0.5
w 367 0.5
w 368 0.5
w 369 0.5
w 370 0.5
w 371 0.5
w 372 0.5
w 373 0.5625
w 374 0.5
w 375 0.5
w 376 0.5
w 377 0.5
w 378 0.5
w 379 0.5
w 380 0.5
w 381 0.5
w 382 0.5
w 383 0.5
w 384 0.5
w 385 0.5
w 386 0.5
w 387 0.5
w 388 0.5
w 389 0.4375
w 390 0.5
w 391 0.5
w 392 0.5
w 393 0.5
w 394 0.5
w 395 0.5
w 396 0.5
w 397 0.5
w 398 0.5
w 399 0.5
w 400 0.5
w 401 0.5
w 402 0.5
w 403 0.5
w 404 0.5
w 405 0.5
w 406 0.5
w 407 0.5
w 408 0.5
w 409 0.5
w 410 0.5
w 411 0.5
w 412 0.4375
w 413 0.5
w 414 0.5
w 415 0.5
w 416 0.5
w 417 0.5
w 418 0.5
w 419 0.5
w 420 0.5
w 421 0.5
w 422 0.5
w 423 0.5
w 424 0.5
w 425 0.5
w 426 0.5
w 427 0.4375
w 428 0.5
w 429 0.5
w 430 0.4375
w 431 0.5
w 432 0.4375
w 433 0.5
w 434 0.5
w 435 0.5
w 436 0.5
w 437 0.5
